# ================================================================
# Orca input file for cubane B3LYP/def2-TZVP geometry optimization
# ================================================================
! DFT B3LYP def2-TZVP TightSCF TightOPT UseSym
! PAL4

* xyz 0 3
  H                     2.04891114    -1.28385753     0.01639629
  C                     1.07007002    -0.81239360    -0.05546669
  H                     2.04891114     1.28385753     0.01639629
  C                     1.07007002     0.81239360    -0.05546669
  H                     0.00000000    -1.61019161    -2.01437011
  C                     0.00000000    -1.32325628    -0.96962522
  H                     0.00000000     1.61019161    -2.01437011
  C                     0.00000000     1.32325628    -0.96962522
  H                     0.00000000    -1.43928333     1.95057909
  C                     0.00000000    -0.77017176     1.09445645
  H                     0.00000000     1.43928333     1.95057909
  C                     0.00000000     0.77017176     1.09445645
  H                    -2.04891114    -1.28385753     0.01639629
  C                    -1.07007002    -0.81239360    -0.05546669
  H                    -2.04891114     1.28385753     0.01639629
  C                    -1.07007002     0.81239360    -0.05546669
*
