$comment0
$end

$rem
SYMMETRY              True
BASIS                 cc-pVDZ
METHOD                CCSD
N_FROZEN_CORE         FC
SCF_CONVERGENCE       8
JOBTYPE               opt
$end

$molecule
   0 3
   H                     2.06721087    -1.28929797     0.02841710
   C                     1.07859343    -0.80828295    -0.04633276
   H                     2.06721087     1.28929797     0.02841710
   C                     1.07859343     0.80828295    -0.04633276
   H                     0.00000000    -1.50355455    -2.06323477
   C                     0.00000000    -1.33405546    -0.97751922
   H                     0.00000000     1.50355455    -2.06323477
   C                     0.00000000     1.33405546    -0.97751922
   H                     0.00000000    -1.45662892     1.97635158
   C                     0.00000000    -0.77866605     1.11042931
   H                     0.00000000     1.45662892     1.97635158
   C                     0.00000000     0.77866605     1.11042931
   H                    -2.06721087    -1.28929797     0.02841710
   C                    -1.07859343    -0.80828295    -0.04633276
   H                    -2.06721087     1.28929797     0.02841710
   C                    -1.07859343     0.80828295    -0.04633276
$end
