# ================================================================
# Orca input file for cubane
# ================================================================
! LPNO-CCSD cc-pVDZ cc-pVDZ/C TightSCF TightOpt
! NumGrad
! PAL4

* xyz 0 1
  H                     1.42503470     1.42503470     1.42503472
  H                    -1.42503470    -1.42503470     1.42503472
  H                    -1.42503470     1.42503470    -1.42503472
  H                     1.42503470    -1.42503470    -1.42503472
  H                    -1.42503470    -1.42503470    -1.42503472
  H                     1.42503470     1.42503470    -1.42503472
  H                     1.42503470    -1.42503470     1.42503472
  H                    -1.42503470     1.42503470     1.42503472
  C                     0.78961438     0.78961438     0.78961439
  C                    -0.78961438    -0.78961438     0.78961439
  C                    -0.78961438     0.78961438    -0.78961439
  C                     0.78961438    -0.78961438    -0.78961439
  C                    -0.78961438    -0.78961438    -0.78961439
  C                     0.78961438     0.78961438    -0.78961439
  C                     0.78961438    -0.78961438     0.78961439
  C                    -0.78961438     0.78961438     0.78961439
*
