# ================================================================
# Orca input file for cubane
# ================================================================
! DLPNO-CCSD(T) cc-pVQZ cc-pVQZ/C TightSCF
! PAL4

%maxcore 2000

* xyzfile 0 1 scan.xyz
