# ================================================================
# Orca input file for cubane RI-MP2/cc-pVTZ geometry optimization
# ================================================================
! RHF RI-MP2 cc-pVTZ cc-pVTZ/C TightSCF TightOPT UseSym
! PAL4

* xyz 0 1
  H      -1.410     -1.410     -1.410
  C      -0.783     -0.783     -0.783
  H      -1.410     -1.410      1.410
  C      -0.783     -0.783      0.783
  H      -1.410      1.410     -1.410
  C      -0.783      0.783     -0.783
  H       1.410     -1.410     -1.410
  C       0.783     -0.783     -0.783
  H      -1.410      1.410      1.410
  C      -0.783      0.783      0.783
  H       1.410     -1.410      1.410
  C       0.783     -0.783      0.783
  H       1.410      1.410     -1.410
  C       0.783      0.783     -0.783
  H       1.410      1.410      1.410
  C       0.783      0.783      0.783
*
