# ================================================================
# Orca input file for cubane B3LYP/def2-SVP geometry optimization
# ================================================================
! DFT B3LYP def2-SVP TightSCF TightOPT UseSym
! NumGrad
! PAL4

%scf
  HFTyp ROHF
end

* xyz 0 3
  H       2.061000     -1.291000      0.025000
  C       1.072000     -0.813000     -0.052000
  H       2.061000      1.290000      0.025000
  C       1.072000      0.812000     -0.052000
  H       0.000000     -1.576000     -2.039000
  C       0.000000     -1.328000     -0.972000
  H       0.000000      1.576000     -2.039000
  C       0.000000      1.328000     -0.972000
  H       0.000000     -1.447000      1.963000
  C       0.000000     -0.772000      1.096000
  H       0.000000      1.447000      1.963000
  C       0.000000      0.772000      1.096000
  H      -2.061002     -1.291000      0.018000
  C      -1.072000     -0.813000     -0.053000
  H      -2.061000      1.290000      0.018000
  C      -1.072000      0.812000     -0.053000
*
