$comment0
$end

$rem
SYMMETRY              True
BASIS                 cc-pVDZ
METHOD                CCSD
N_FROZEN_CORE         FC
SCF_CONVERGENCE       8
JOBTYPE               opt
$end

$molecule
   0 1
   H                     1.42503470     1.42503470     1.42503472
   H                    -1.42503470    -1.42503470     1.42503472
   H                    -1.42503470     1.42503470    -1.42503472
   H                     1.42503470    -1.42503470    -1.42503472
   H                    -1.42503470    -1.42503470    -1.42503472
   H                     1.42503470     1.42503470    -1.42503472
   H                     1.42503470    -1.42503470     1.42503472
   H                    -1.42503470     1.42503470     1.42503472
   C                     0.78961438     0.78961438     0.78961439
   C                    -0.78961438    -0.78961438     0.78961439
   C                    -0.78961438     0.78961438    -0.78961439
   C                     0.78961438    -0.78961438    -0.78961439
   C                    -0.78961438    -0.78961438    -0.78961439
   C                     0.78961438     0.78961438    -0.78961439
   C                     0.78961438    -0.78961438     0.78961439
   C                    -0.78961438     0.78961438     0.78961439
$end
