# ================================================================
# Orca input file for cubane
# ================================================================
! LPNO-CCSD cc-pVTZ cc-pVTZ/C TightSCF TightOpt
! NumGrad
! PAL4

* xyz 0 1
  H                     1.41035684     1.41035685     1.41035685
  H                    -1.41035684    -1.41035685     1.41035685
  H                    -1.41035684     1.41035685    -1.41035685
  H                     1.41035684    -1.41035685    -1.41035685
  H                    -1.41035684    -1.41035685    -1.41035685
  H                     1.41035684     1.41035685    -1.41035685
  H                     1.41035684    -1.41035685     1.41035685
  H                    -1.41035684     1.41035685     1.41035685
  C                     0.78381707     0.78381707     0.78381707
  C                    -0.78381707    -0.78381707     0.78381707
  C                    -0.78381707     0.78381707    -0.78381707
  C                     0.78381707    -0.78381707    -0.78381707
  C                    -0.78381707    -0.78381707    -0.78381707
  C                     0.78381707     0.78381707    -0.78381707
  C                     0.78381707    -0.78381707     0.78381707
  C                    -0.78381707     0.78381707     0.78381707
*
